interdiction/MCDM/NO_CORR/GEN_FROM_60/13_ITEMS_1000_GEN/K5013W15.KNP.mps
NAME          BLANK   
ROWS
 N  OBJROW
 L  R0000000
COLUMNS
    C0000000  OBJROW     -947.         R0000000  75.         
    C0000001  OBJROW     -481.         R0000000  895.        
    C0000002  OBJROW     -776.         R0000000  413.        
    C0000003  OBJROW     -932.         R0000000  260.        
    C0000004  OBJROW     -660.         R0000000  153.        
    C0000005  OBJROW     -294.         R0000000  785.        
    C0000006  OBJROW     -367.         R0000000  423.        
    C0000007  OBJROW     -546.         R0000000  836.        
    C0000008  OBJROW     -209.         R0000000  278.        
    C0000009  OBJROW     -535.         R0000000  468.        
    C0000010  OBJROW     -293.         R0000000  255.        
    C0000011  OBJROW     -229.         R0000000  336.        
    C0000012  OBJROW     -580.         R0000000  161.        
RHS
    RHS       R0000000  13564.      
BOUNDS
 BV BOUND     C0000000  1.          
 BV BOUND     C0000001  1.          
 BV BOUND     C0000002  1.          
 BV BOUND     C0000003  1.          
 BV BOUND     C0000004  1.          
 BV BOUND     C0000005  1.          
 BV BOUND     C0000006  1.          
 BV BOUND     C0000007  1.          
 BV BOUND     C0000008  1.          
 BV BOUND     C0000009  1.          
 BV BOUND     C0000010  1.          
 BV BOUND     C0000011  1.          
 BV BOUND     C0000012  1.          
ENDATA
