interdiction/MCDM/NO_CORR/GEN_FROM_60/13_ITEMS_1000_GEN/K5013W15.KNP.txt
N 13
M 14
LC 13
LC 14
LC 15
LC 16
LC 17
LC 18
LC 19
LC 20
LC 21
LC 22
LC 23
LC 24
LC 25
LR 1
LR 2
LR 3
LR 4
LR 5
LR 6
LR 7
LR 8
LR 9
LR 10
LR 11
LR 12
LR 13
LR 14
LO -947
LO -481
LO -776
LO -932
LO -660
LO -294
LO -367
LO -546
LO -209
LO -535
LO -293
LO -229
LO -580
OS 1
IC 943
IC 365
IC 260
IC 101
IC 722
IC 459
IC 129
IC 523
IC 504
IC 844
IC 150
IC 148
IC 653
IB 2901
